150 165 42 189 127 193 86 41 176 87 82 40 140 60 63 163 8 2 136 121 10 196 131 138 47 107 93 97 21 22 74 183 39 139 32 43 70 7 198 29 114 1 64 79 152 36 9 50 80 160 159 195 72 155 65 57 147 119 141 101 19 177 190 161 144 23 120 16 18 184 59 173 178 77 117 182 48 153 137 175 154 94 106 113 192 166 180 89 33 148 14 185 125 20 130 151 73 96 15 44 88 61 126 145 103 197 5 95 169 92 58 116 34 132 11 25 83 13 194 99 26 164 111 85 199 133 38 135 112 0 115 129 52 98 102 76 24 108 91 67 37 191 179 28 81 90 3 188 146 84 69 75 122 6 46 35 156 186 157 174 53 71 170 27 54 78 128 168 109 4 149 134 162 118 51 124 31 171 172 142 45 143 187 56 110 66 17 123 62 181 105 49 68 55 100 104 167 30 12 158 

